50, 12035
210, 210
386, 384
196, 195
396, 396
563, 561
646, 645
255, 255
357, 357
179, 177
815, 813
295, 294
883, 882
74, 72
9, 9
424, 423
423, 423
753, 753
868, 867
514, 513
300, 300
717, 717
461, 459
258, 258
321, 321
1, 0
709, 708
46, 45
189, 189
620, 618
620, 618
619, 618
634, 633
801, 801
945, 945
968, 966
388, 387
352, 351
136, 135
432, 432
173, 171
934, 933
754, 753
236, 234
692, 690
699, 699
100, 99
810, 810
734, 732
473, 471
944, 942
